
Gurobi 10.0.0 (win64) logging started Tue Jun  4 15:20:30 2024

Set parameter LogFile to value "C:\Users\ealvarezq\Documents\GitHub\Comillas\Models\JointResearch\05. Models\06.Benchmarking\B.Operation_cost\9n_mod1_ByStages_nc10/openStarNet_9n_mod1_ByStages_nc10.log"
Set parameter Method to value 2
Set parameter MIPFocus to value 1
Set parameter Presolve to value 2
Set parameter RINS to value 100
Set parameter MIPGap to value 0.01
Set parameter Threads to value 9
Set parameter TimeLimit to value 259200
Set parameter IterationLimit to value 760000000
Gurobi Optimizer version 10.0.0 build v10.0.0rc2 (win64)

CPU model: Intel(R) Core(TM) i7-8700 CPU @ 3.20GHz, instruction set [SSE2|AVX|AVX2]
Thread count: 6 physical cores, 12 logical processors, using up to 9 threads

Optimize a model with 2623 rows, 1429 columns and 7958 nonzeros
Model fingerprint: 0xa4ca8a9f
Variable types: 1393 continuous, 36 integer (36 binary)
Coefficient statistics:
  Matrix range     [2e-04, 4e+03]
  Objective range  [1e+00, 1e+00]
  Bounds range     [1e-03, 2e+00]
  RHS range        [2e-04, 1e+00]
Presolve removed 893 rows and 473 columns
Presolve time: 0.01s
Presolved: 1730 rows, 956 columns, 5920 nonzeros
Variable types: 920 continuous, 36 integer (36 binary)
Found heuristic solution: objective 3419.2975864
Root relaxation presolved: 1730 rows, 956 columns, 5920 nonzeros

Root barrier log...

Ordering time: 0.02s

Barrier statistics:
 AA' NZ     : 4.497e+04
 Factor NZ  : 2.356e+05 (roughly 3 MB of memory)
 Factor Ops : 5.204e+07 (less than 1 second per iteration)
 Threads    : 9

                  Objective                Residual
Iter       Primal          Dual         Primal    Dual     Compl     Time
   0   4.62526416e+05 -1.30721899e+07  6.90e+00 4.89e+02  1.44e+04     0s
   1   5.65121041e+04 -5.22105517e+06  7.10e-01 3.82e-11  2.03e+03     0s
   2   1.43860755e+04 -3.64171649e+06  5.90e-02 2.36e-11  1.09e+03     0s
   3   6.72983780e+03 -1.11112328e+05  4.46e-04 4.47e-11  3.40e+01     0s
   4   1.32695325e+03 -8.35340116e+03  2.81e-06 7.28e-12  2.79e+00     0s
   5   6.48920440e+02 -4.05445909e+03  4.80e-08 3.24e-12  1.35e+00     0s
   6   3.78698921e+02 -6.41589772e+02  2.73e-10 3.14e-12  2.94e-01     0s
   7   1.80651716e+02 -1.57712753e+02  5.30e-11 3.80e-12  9.75e-02     0s
   8   1.04764626e+02  3.66834841e+01  1.56e-11 4.52e-12  1.96e-02     0s
   9   7.71524360e+01  6.46188243e+01  2.14e-12 3.44e-12  3.61e-03     0s
  10   7.32811625e+01  7.14802562e+01  6.46e-13 2.11e-12  5.19e-04     0s
  11   7.25131904e+01  7.23101055e+01  1.26e-12 2.20e-12  5.85e-05     0s
  12   7.24373162e+01  7.24367079e+01  9.00e-13 4.49e-12  1.75e-07     0s
  13   7.24372192e+01  7.24372186e+01  6.37e-13 2.59e-12  1.75e-10     0s

Barrier solved model in 13 iterations and 0.10 seconds (0.06 work units)
Optimal objective 7.24372192e+01


Root relaxation: objective 7.243722e+01, 120 iterations, 0.07 seconds (0.04 work units)

    Nodes    |    Current Node    |     Objective Bounds      |     Work
 Expl Unexpl |  Obj  Depth IntInf | Incumbent    BestBd   Gap | It/Node Time

     0     0   72.43722    0    5 3419.29759   72.43722  97.9%     -    0s
H    0     0                      75.5974946   72.43722  4.18%     -    0s
     0     0   74.70302    0    1   75.59749   74.70302  1.18%     -    0s
     0     0   74.70302    0    3   75.59749   74.70302  1.18%     -    0s

Cutting planes:
  Learned: 1
  MIR: 2

Explored 1 nodes (182 simplex iterations) in 0.17 seconds (0.09 work units)
Thread count was 9 (of 12 available processors)

Solution count 2: 75.5975 3419.3 

Optimal solution found (tolerance 1.00e-02)
Best objective 7.559749464549e+01, best bound 7.559749464549e+01, gap 0.0000%

Gurobi 10.0.0 (win64) logging started Tue Jun  4 15:20:31 2024

Set parameter LogFile to value "C:\Users\ealvarezq\Documents\GitHub\Comillas\Models\JointResearch\05. Models\06.Benchmarking\B.Operation_cost\9n_mod1_ByStages_nc10/openStarNet_9n_mod1_ByStages_nc10.log"
Set parameter Method to value 2
Set parameter MIPFocus to value 1
Set parameter Presolve to value 2
Set parameter RINS to value 100
Set parameter MIPGap to value 0.01
Set parameter Threads to value 9
Set parameter TimeLimit to value 259200
Set parameter IterationLimit to value 760000000
Gurobi Optimizer version 10.0.0 build v10.0.0rc2 (win64)

CPU model: Intel(R) Core(TM) i7-8700 CPU @ 3.20GHz, instruction set [SSE2|AVX|AVX2]
Thread count: 6 physical cores, 12 logical processors, using up to 9 threads

Optimize a model with 2623 rows, 1393 columns and 6482 nonzeros
Model fingerprint: 0x4081bc28
Coefficient statistics:
  Matrix range     [2e-04, 4e+03]
  Objective range  [1e+00, 1e+00]
  Bounds range     [1e-03, 2e+00]
  RHS range        [2e-04, 2e+01]
Presolve removed 2391 rows and 923 columns
Presolve time: 0.00s
Presolved: 232 rows, 480 columns, 1034 nonzeros

Ordering time: 0.00s

Barrier statistics:
 AA' NZ     : 5.100e+02
 Factor NZ  : 2.296e+03
 Factor Ops : 2.993e+04 (less than 1 second per iteration)
 Threads    : 1

                  Objective                Residual
Iter       Primal          Dual         Primal    Dual     Compl     Time
   0   5.13096107e+05 -8.08975569e+06  6.36e+00 3.13e+02  3.84e+04     0s
   1   8.59596167e+04 -4.03738889e+06  9.47e-01 3.27e-11  6.89e+03     0s
   2   2.48528157e+04 -1.02986065e+06  1.34e-01 3.27e-11  1.20e+03     0s
   3   9.73401178e+03 -8.64237278e+04  2.98e-03 2.91e-11  8.92e+01     0s
   4   2.24456726e+03 -3.97036134e+03  1.29e-05 1.18e-11  5.69e+00     0s
   5   5.85029229e+02 -1.08962979e+03  9.50e-08 3.64e-12  1.53e+00     0s
   6   2.84426285e+02 -4.94331173e+02  1.36e-08 3.20e-12  7.13e-01     0s
   7   1.62186897e+02 -9.86688210e+01  3.15e-09 5.93e-12  2.39e-01     0s
   8   1.08471167e+02  2.06687694e+01  1.03e-09 3.83e-12  8.04e-02     0s
   9   8.14157355e+01  6.01883594e+01  1.11e-10 1.25e-11  1.94e-02     0s
  10   7.59334377e+01  7.50976898e+01  1.15e-12 4.99e-12  7.65e-04     0s
  11   7.56019896e+01  7.55757823e+01  8.66e-15 2.60e-12  2.40e-05     0s
  12   7.55975180e+01  7.55974679e+01  1.81e-14 5.88e-12  4.59e-08     0s
  13   7.55974946e+01  7.55974946e+01  1.73e-14 8.21e-12  5.90e-14     0s

Barrier solved model in 13 iterations and 0.01 seconds (0.00 work units)
Optimal objective 7.55974946e+01

Crossover log...

     114 DPushes remaining with DInf 0.0000000e+00                 0s
       0 DPushes remaining with DInf 0.0000000e+00                 0s

       6 PPushes remaining with PInf 0.0000000e+00                 0s
       0 PPushes remaining with PInf 0.0000000e+00                 0s

  Push phase complete: Pinf 0.0000000e+00, Dinf 1.5687451e-13      0s

Iteration    Objective       Primal Inf.    Dual Inf.      Time
      15    7.5597495e+01   0.000000e+00   0.000000e+00      0s

Solved in 15 iterations and 0.01 seconds (0.01 work units)
Optimal objective  7.559749465e+01

Gurobi 11.0.0 (linux64) logging started Tue Aug  6 22:46:44 2024

Set parameter LogFile to value "/lustre1/scratch/348/vsc34888/JointResearch/05.Models/06.Benchmarking/B.Operation_cost/9n_mod1_ByStages_nc10/openStarNet_9n_mod1_ByStages_nc10.log"
Set parameter Method to value 2
Set parameter MIPFocus to value 1
Set parameter Presolve to value 2
Set parameter RINS to value 100
Set parameter MIPGap to value 0.01
Set parameter Threads to value 36
Set parameter TimeLimit to value 259200
Set parameter IterationLimit to value 760000000
Gurobi Optimizer version 11.0.0 build v11.0.0rc2 (linux64 - "Rocky Linux 8.9 (Green Obsidian)")

CPU model: Intel(R) Xeon(R) Gold 6240 CPU @ 2.60GHz, instruction set [SSE2|AVX|AVX2|AVX512]
Thread count: 36 physical cores, 36 logical processors, using up to 36 threads

Optimize a model with 2623 rows, 1393 columns and 6482 nonzeros
Model fingerprint: 0xfc017082
Coefficient statistics:
  Matrix range     [2e-04, 4e+03]
  Objective range  [1e+00, 1e+00]
  Bounds range     [1e-03, 2e+00]
  RHS range        [2e-04, 1e+00]
Presolve removed 2390 rows and 914 columns
Presolve time: 0.00s
Presolved: 233 rows, 479 columns, 1015 nonzeros

Ordering time: 0.00s

Barrier statistics:
 AA' NZ     : 4.750e+02
 Factor NZ  : 2.112e+03
 Factor Ops : 2.451e+04 (less than 1 second per iteration)
 Threads    : 1

                  Objective                Residual
Iter       Primal          Dual         Primal    Dual     Compl     Time
   0   5.54873212e+05 -6.53293289e+06  4.88e+00 7.28e-12  3.06e+04     0s
   1   6.93069349e+04 -3.37951489e+06  4.43e-01 2.59e-11  4.61e+03     0s
   2   2.40943430e+04 -7.23910050e+05  6.43e-02 2.18e-11  7.78e+02     0s
   3   1.22675527e+04 -4.14135139e+04  3.99e-04 2.18e-11  4.93e+01     0s
   4   4.68690090e+03  1.35213521e+02  8.56e-06 1.46e-11  4.17e+00     0s
   5   3.96631283e+03  2.31636812e+03  5.80e-07 1.46e-11  1.51e+00     0s
   6   3.66514295e+03  2.80538049e+03  1.25e-07 7.28e-12  7.88e-01     0s
   7   3.51073875e+03  3.21839800e+03  2.11e-08 7.28e-12  2.68e-01     0s
   8   3.45384103e+03  3.34764427e+03  4.72e-09 7.28e-12  9.73e-02     0s
   9   3.42304947e+03  3.39915875e+03  1.61e-10 1.46e-11  2.19e-02     0s
  10   3.41963529e+03  3.41630086e+03  3.48e-12 7.28e-12  3.06e-03     0s
  11   3.41933824e+03  3.41917355e+03  2.84e-13 1.09e-11  1.51e-04     0s
  12   3.41930073e+03  3.41929438e+03  4.39e-14 3.64e-12  5.82e-06     0s
  13   3.41929760e+03  3.41929757e+03  4.65e-13 7.28e-12  3.23e-08     0s
  14   3.41929759e+03  3.41929759e+03  1.16e-14 1.09e-11  3.23e-14     0s

Barrier solved model in 14 iterations and 0.01 seconds (0.00 work units)
Optimal objective 3.41929759e+03

Crossover log...

     110 DPushes remaining with DInf 0.0000000e+00                 0s
       0 DPushes remaining with DInf 0.0000000e+00                 0s

       6 PPushes remaining with PInf 0.0000000e+00                 0s
       0 PPushes remaining with PInf 0.0000000e+00                 0s

  Push phase complete: Pinf 0.0000000e+00, Dinf 3.4071357e-13      0s

Iteration    Objective       Primal Inf.    Dual Inf.      Time
      17    3.4192976e+03   0.000000e+00   0.000000e+00      0s

Solved in 17 iterations and 0.01 seconds (0.01 work units)
Optimal objective  3.419297586e+03

Gurobi 11.0.0 (linux64) logging started Tue Aug  6 22:46:45 2024

Set parameter LogFile to value "/lustre1/scratch/348/vsc34888/JointResearch/05.Models/06.Benchmarking/B.Operation_cost/9n_mod1_ByStages_nc10/openStarNet_9n_mod1_ByStages_nc10.log"
Set parameter Method to value 2
Set parameter MIPFocus to value 1
Set parameter Presolve to value 2
Set parameter RINS to value 100
Set parameter MIPGap to value 0.01
Set parameter Threads to value 36
Set parameter TimeLimit to value 259200
Set parameter IterationLimit to value 760000000
Gurobi Optimizer version 11.0.0 build v11.0.0rc2 (linux64 - "Rocky Linux 8.9 (Green Obsidian)")

CPU model: Intel(R) Xeon(R) Gold 6240 CPU @ 2.60GHz, instruction set [SSE2|AVX|AVX2|AVX512]
Thread count: 36 physical cores, 36 logical processors, using up to 36 threads

Optimize a model with 2623 rows, 1393 columns and 6482 nonzeros
Model fingerprint: 0xfc017082
Coefficient statistics:
  Matrix range     [2e-04, 4e+03]
  Objective range  [1e+00, 1e+00]
  Bounds range     [1e-03, 2e+00]
  RHS range        [2e-04, 1e+00]
Presolve removed 2390 rows and 914 columns
Presolve time: 0.00s
Presolved: 233 rows, 479 columns, 1015 nonzeros

Ordering time: 0.00s

Barrier statistics:
 AA' NZ     : 4.750e+02
 Factor NZ  : 2.112e+03
 Factor Ops : 2.451e+04 (less than 1 second per iteration)
 Threads    : 1

                  Objective                Residual
Iter       Primal          Dual         Primal    Dual     Compl     Time
   0   5.54873212e+05 -6.53293289e+06  4.88e+00 7.28e-12  3.06e+04     0s
   1   6.93069349e+04 -3.37951489e+06  4.43e-01 2.59e-11  4.61e+03     0s
   2   2.40943430e+04 -7.23910050e+05  6.43e-02 2.18e-11  7.78e+02     0s
   3   1.22675527e+04 -4.14135139e+04  3.99e-04 2.18e-11  4.93e+01     0s
   4   4.68690090e+03  1.35213521e+02  8.56e-06 1.46e-11  4.17e+00     0s
   5   3.96631283e+03  2.31636812e+03  5.80e-07 1.46e-11  1.51e+00     0s
   6   3.66514295e+03  2.80538049e+03  1.25e-07 7.28e-12  7.88e-01     0s
   7   3.51073875e+03  3.21839800e+03  2.11e-08 7.28e-12  2.68e-01     0s
   8   3.45384103e+03  3.34764427e+03  4.72e-09 7.28e-12  9.73e-02     0s
   9   3.42304947e+03  3.39915875e+03  1.61e-10 1.46e-11  2.19e-02     0s
  10   3.41963529e+03  3.41630086e+03  3.48e-12 7.28e-12  3.06e-03     0s
  11   3.41933824e+03  3.41917355e+03  2.84e-13 1.09e-11  1.51e-04     0s
  12   3.41930073e+03  3.41929438e+03  4.39e-14 3.64e-12  5.82e-06     0s
  13   3.41929760e+03  3.41929757e+03  4.65e-13 7.28e-12  3.23e-08     0s
  14   3.41929759e+03  3.41929759e+03  1.16e-14 1.09e-11  3.23e-14     0s

Barrier solved model in 14 iterations and 0.01 seconds (0.00 work units)
Optimal objective 3.41929759e+03

Crossover log...

     110 DPushes remaining with DInf 0.0000000e+00                 0s
       0 DPushes remaining with DInf 0.0000000e+00                 0s

       6 PPushes remaining with PInf 0.0000000e+00                 0s
       0 PPushes remaining with PInf 0.0000000e+00                 0s

  Push phase complete: Pinf 0.0000000e+00, Dinf 3.4071357e-13      0s

Iteration    Objective       Primal Inf.    Dual Inf.      Time
      17    3.4192976e+03   0.000000e+00   0.000000e+00      0s

Solved in 17 iterations and 0.01 seconds (0.01 work units)
Optimal objective  3.419297586e+03
